000 000 000 000 000 000 000 000 -99 -99 -99 -99 -99 -99 -99 -99 -99 -99 000 000 -99 -99 -99 -99 000 000 000 -99 -99 -99 -99
000 000 000 000 000 000 000 000 -99 -99 -99 -99 -99 -99 -99 -99 -99 -99 -99 000 000 -99 000 000 -99 000 000 000 -99 -99 -99
-99 000 000 000 000 000 000 000 -99 -99 -99 -99 -99 -99 000 -99 -99 -99 -99 -99 000 -99 000 000 -99 000 000 000 000 000 -99
-99 000 000 000 000 000 000 000 000 -99 -99 000 000 -99 000 000 -99 -99 -99 -99 000 -99 000 000 000 000 000 000 000 000 -99
000 000 000 000 000 000 000 000 000 000 -99 000 000 000 -99 000 000 -99 -99 -99 000 000 000 000 000 -99 000 000 000 -99 -99
000 000 000 000 000 000 000 000 000 000 -99 000 000 000 000 000 000 -99 -99 -99 000 000 000 000 000 -99 -99 000 000 -99 -99
000 000 000 000 000 000 000 000 000 000 000 000 000 000 -99 000 000 000 -99 -99 000 000 000 000 000 -99 -99 -99 -99 -99 -99
000 000 000 000 000 000 000 000 000 000 -99 -99 -99 000 -99 000 000 000 -99 -99 000 000 000 000 000 -99 -99 -99 -99 -99 -99
000 000 000 000 000 000 000 000 000 000 000 -99 -99 -99 -99 -99 000 000 000 -99 000 000 000 000 000 -99 -99 -99 -99 -99 -99
000 000 000 000 000 000 -99 -99 000 000 -99 -99 -99 -99 -99 -99 -99 000 000 -99 -99 000 000 -99 000 -99 -99 000 -99 000 -99
000 000 000 000 000 -99 -99 -99 000 000 000 000 -99 -99 -99 -99 000 000 000 -99 -99 -99 000 -99 000 -99 -99 000 000 000 -99
000 000 000 000 000 -99 000 000 000 000 000 -99 -99 -99 -99 000 000 000 000 000 -99 -99 -99 000 000 000 -99 000 000 000 000
000 000 000 000 000 000 000 000 000 000 000 -99 -99 -99 -99 000 000 000 000 000 -99 -99 -99 -99 000 000 000 -99 000 000 000
000 000 000 000 000 000 000 000 -99 000 000 000 000 -99 -99 -99 000 000 000 000 000 -99 000 000 000 000 000 -99 000 000 000
000 -99 000 000 000 000 000 000 000 -99 -99 -99 000 000 -99 -99 000 000 000 000 -99 -99 000 000 000 000 000 000 000 000 000
000 -99 000 000 000 000 000 000 000 000 -99 -99 000 000 000 -99 000 -99 000 -99 -99 -99 000 -99 000 000 000 000 000 000 000
000 -99 -99 -99 000 000 000 000 000 000 -99 -99 -99 000 000 -99 000 000 -99 -99 -99 -99 000 -99 000 000 000 000 000 000 000
000 000 000 -99 -99 -99 000 000 000 000 000 -99 -99 000 000 000 000 000 -99 -99 -99 000 000 -99 -99 000 000 000 000 000 000
000 000 000 000 -99 -99 -99 000 000 000 -99 000 -99 -99 -99 000 000 000 -99 -99 -99 000 000 -99 -99 000 000 000 -99 000 -99
000 000 000 000 -99 -99 000 000 000 -99 000 000 -99 -99 000 -99 000 000 000 -99 000 000 000 -99 -99 000 000 -99 -99 -99 -99
000 000 000 000 000 000 000 000 000 -99 -99 -99 -99 -99 000 -99 000 000 000 -99 000 000 000 -99 -99 -99 000 -99 -99 -99 -99
000 000 000 000 000 000 000 000 000 000 -99 -99 -99 -99 000 000 000 000 000 000 000 000 000 -99 -99 -99 -99 -99 -99 -99 -99
000 000 000 000 000 000 000 000 000 000 000 -99 -99 -99 000 000 000 000 000 000 000 000 000 -99 -99 -99 -99 -99 -99 -99 -99
000 000 000 000 000 000 000 001 000 000 000 000 -99 -99 000 000 000 000 000 000 000 000 000 -99 -99 -99 -99 -99 -99 -99 -99
000 000 000 000 000 000 000 002 002 001 001 000 000 000 -99 000 000 000 000 000 000 000 000 -99 -99 -99 -99 -99 -99 -99 000
000 000 000 000 000 000 005 016 044 007 007 002 000 000 000 000 000 000 000 000 000 000 000 -99 -99 -99 -99 -99 -99 000 000
000 000 000 000 001 005 011 023 051 013 013 007 001 000 000 000 000 000 000 -99 000 000 000 -99 -99 -99 -99 -99 -99 000 000
000 003 004 005 005 020 025 022 033 030 035 026 018 000 000 000 000 000 000 -99 000 000 000 -99 -99 -99 -99 -99 -99 000 000
001 006 006 012 012 025 043 015 028 044 031 043 035 000 000 000 000 000 000 000 000 000 -99 -99 -99 -99 -99 -99 -99 000 000
002 004 002 004 008 029 050 011 010 010 014 029 022 001 000 000 000 000 000 000 000 000 -99 -99 -99 -99 -99 -99 -99 -99 000
001 005 008 013 013 051 021 003 001 001 001 005 002 000 000 000 000 -99 000 000 -99 000 -99 000 000 000 -99 -99 -99 -99 000
000 005 024 031 011 021 011 002 001 000 000 001 000 000 000 -99 000 000 000 -99 -99 -99 000 000 000 000 000 -99 -99 -99 000
000 002 007 016 007 003 002 001 001 001 003 001 000 000 000 000 000 000 000 -99 -99 000 000 000 000 000 000 000 000 000 000
000 000 000 000 001 000 000 001 000 001 004 001 000 000 000 000 000 000 000 -99 000 000 000 000 000 000 000 000 000 000 000
000 000 000 000 000 000 000 000 000 000 002 003 000 000 000 -99 000 000 -99 000 000 000 000 000 000 000 000 000 000 000 000
000 000 000 000 000 000 000 000 000 000 000 000 000 000 000 000 000 000 000 000 000 000 000 000 000 000 000 000 000 000 -99
001 002 001 000 000 000 000 000 000 000 000 -99 000 000 000 000 000 000 000 000 000 000 000 000 000 000 000 -99 000 000 -99
005 005 002 000 000 000 -99 000 000 000 -99 000 000 000 000 000 000 000 000 000 000 000 000 000 000 -99 -99 -99 000 000 -99
009 005 002 000 000 000 000 000 -99 000 -99 000 000 000 000 000 000 000 -99 000 000 000 000 000 000 -99 -99 -99 000 -99 -99
001 000 001 000 000 -99 000 000 000 -99 -99 000 000 000 000 000 000 -99 -99 -99 000 -99 000 000 -99 -99 000 -99 000 -99 -99
000 000 000 000 000 000 000 000 000 000 000 000 000 000 000 000 000 -99 000 000 000 000 000 000 000 000 -99 -99 -99 -99 -99
000 000 000 000 000 000 002 001 000 001 002 001 000 000 000 000 000 000 000 000 000 000 000 000 000 000 000 000 000 000 -99
000 000 -99 000 000 002 012 007 003 010 022 006 006 010 002 001 000 000 000 000 000 000 000 000 000 000 000 000 000 -99 -99
000 -99 -99 000 000 003 007 005 005 029 072 045 073 054 016 009 002 000 001 000 001 001 000 000 000 000 000 000 000 -99 -99
-99 -99 000 000 000 000 002 004 006 054 092 077 131 123 058 025 010 009 002 009 013 007 003 000 000 000 003 000 000 -99 000
-99 -99 000 000 000 000 000 001 004 058 069 066 123 118 040 039 039 035 018 030 068 046 003 002 000 002 006 002 005 005 000
-99 000 000 000 001 000 000 000 002 011 014 065 062 052 032 037 083 073 065 129 134 078 018 011 001 005 018 006 009 003 000
-99 000 000 000 000 000 000 000 001 003 004 004 013 013 016 018 071 068 078 220 134 077 061 021 003 029 026 013 011 002 000
000 000 000 000 -99 -99 000 000 000 001 001 001 003 001 005 016 042 105 092 203 149 109 082 056 029 066 020 017 011 000 000
000 001 000 000 -99 000 000 000 000 000 000 001 001 001 003 009 022 077 085 058 077 080 066 072 080 051 022 015 001 000 000
010 010 001 000 000 000 000 000 000 000 000 000 001 002 002 005 011 019 032 033 064 030 052 072 065 054 029 001 000 000 -99
039 036 004 000 000 003 002 001 000 001 008 000 000 000 001 005 004 018 028 025 035 048 058 062 026 018 018 000 000 -99 -99
082 018 002 001 006 028 006 006 007 008 005 001 000 000 000 001 006 021 017 018 017 019 025 013 003 012 002 000 -99 -99 -99
013 006 006 024 034 035 025 041 028 057 008 002 000 000 000 002 007 010 011 006 003 008 005 000 000 000 001 -99 -99 -99 -99
006 009 013 019 038 040 037 051 061 071 006 002 001 000 000 001 008 004 001 001 002 001 000 000 000 002 -99 -99 -99 -99 -99
